1181.0 13472.0 2976.0 
1160.0 13583.0 3172.0 
1192.0 13195.0 3052.0 
1184.0 13195.0 3178.0 
1190.0 13258.0 3050.0 
1138.0 13619.0 3327.0 
1189.0 13304.0 2934.0 
1182.0 13358.0 2978.0 
1184.0 13289.0 3025.0 
1192.0 13221.0 3024.0 
1192.0 13195.0 3052.0 
1247.0 13136.0 2790.0 
1167.0 13453.0 3129.0 
1192.0 13240.0 2852.0 
1190.0 13294.0 2994.0 
1219.0 13128.0 2818.0 
1198.0 13134.0 2828.0 
1263.0 13156.0 2723.0 
1143.0 13608.0 3112.0 
1175.0 13387.0 3079.0 
1198.0 13209.0 2826.0 
1198.0 13225.0 2800.0 
1143.0 13544.0 3363.0 
1185.0 13399.0 2942.0 
1145.0 13341.0 3173.0 
1214.0 13158.0 2730.0 
1161.0 13482.0 3066.0 
1249.0 13188.0 2721.0 
1191.0 13232.0 2858.0 
1140.0 13653.0 3268.0 
1167.0 13377.0 3150.0 
